c FILE: i080-011

c SOURCE: From steinlib

c DESCRIPTION: Steinlib instance with 80 nodes and 350 edges.

p edge 80 350
e 1 3
e 1 5
e 1 10
e 1 19
e 1 21
e 1 26
e 1 35
e 1 38
e 1 44
e 1 51
e 1 54
e 1 55
e 1 56
e 1 58
e 1 59
e 1 63
e 2 22
e 2 24
e 2 26
e 2 35
e 2 37
e 2 40
e 2 43
e 2 49
e 2 57
e 2 58
e 2 64
e 2 66
e 2 67
e 2 73
e 2 77
e 2 78
e 3 4
e 3 18
e 3 19
e 3 31
e 3 69
e 3 77
e 4 5
e 4 27
e 4 37
e 4 43
e 4 56
e 4 60
e 4 64
e 4 73
e 4 80
e 5 6
e 5 16
e 5 62
e 5 75
e 5 78
e 6 7
e 6 11
e 6 15
e 6 37
e 6 65
e 6 70
e 7 15
e 7 28
e 7 29
e 7 35
e 7 58
e 7 61
e 8 19
e 8 21
e 8 45
e 8 52
e 8 58
e 8 59
e 8 68
e 9 14
e 9 16
e 9 29
e 9 59
e 9 60
e 9 79
e 10 33
e 10 47
e 10 63
e 10 67
e 11 12
e 11 36
e 11 57
e 11 76
e 12 24
e 12 55
e 12 76
e 13 25
e 13 49
e 13 51
e 13 56
e 13 76
e 14 21
e 14 33
e 14 48
e 14 51
e 14 52
e 14 58
e 14 65
e 14 80
e 15 24
e 15 72
e 15 76
e 16 19
e 16 21
e 16 23
e 16 39
e 16 42
e 16 43
e 16 49
e 16 57
e 16 59
e 16 66
e 16 72
e 16 77
e 17 21
e 17 36
e 17 45
e 17 52
e 17 55
e 17 56
e 17 57
e 17 66
e 17 70
e 17 76
e 18 31
e 18 66
e 18 71
e 19 21
e 19 26
e 19 36
e 19 43
e 19 52
e 19 58
e 19 60
e 19 63
e 20 21
e 20 33
e 20 34
e 20 35
e 20 42
e 20 54
e 20 60
e 21 34
e 21 60
e 21 61
e 22 24
e 22 32
e 22 34
e 22 39
e 22 54
e 22 55
e 22 60
e 22 73
e 23 30
e 23 34
e 23 42
e 23 63
e 23 70
e 23 71
e 24 33
e 24 51
e 24 60
e 24 72
e 25 57
e 25 62
e 25 64
e 25 72
e 25 75
e 25 78
e 26 28
e 26 36
e 26 37
e 26 41
e 26 42
e 26 47
e 26 55
e 26 56
e 26 57
e 27 29
e 27 32
e 27 34
e 27 36
e 27 41
e 27 45
e 27 53
e 27 56
e 27 58
e 27 74
e 27 75
e 27 77
e 28 30
e 28 38
e 28 40
e 28 44
e 28 47
e 28 56
e 28 66
e 28 67
e 28 76
e 29 32
e 29 46
e 29 48
e 30 38
e 30 63
e 30 66
e 31 37
e 31 39
e 31 41
e 31 62
e 31 77
e 31 79
e 32 61
e 32 73
e 32 74
e 32 80
e 33 35
e 33 38
e 33 47
e 33 56
e 33 58
e 33 62
e 33 63
e 33 68
e 33 74
e 34 37
e 34 52
e 34 68
e 34 78
e 35 46
e 35 49
e 35 52
e 35 62
e 35 69
e 36 44
e 36 61
e 36 62
e 36 70
e 36 77
e 36 78
e 37 45
e 37 46
e 37 47
e 37 49
e 37 51
e 37 52
e 37 67
e 37 75
e 37 76
e 38 41
e 38 42
e 38 53
e 38 61
e 38 63
e 39 44
e 39 53
e 39 54
e 39 62
e 39 74
e 39 76
e 39 79
e 40 44
e 40 47
e 40 66
e 41 61
e 41 74
e 42 60
e 42 65
e 42 66
e 42 75
e 42 76
e 42 77
e 43 47
e 43 75
e 44 66
e 45 46
e 45 55
e 46 54
e 46 55
e 46 65
e 46 79
e 47 54
e 47 62
e 47 63
e 47 73
e 48 49
e 48 52
e 48 56
e 48 57
e 48 58
e 48 60
e 48 68
e 49 51
e 50 51
e 50 53
e 50 61
e 50 65
e 51 53
e 51 57
e 51 61
e 51 76
e 51 80
e 52 64
e 52 70
e 52 80
e 53 57
e 53 73
e 53 76
e 54 60
e 54 69
e 54 76
e 54 78
e 55 64
e 55 65
e 55 66
e 55 71
e 55 74
e 56 58
e 56 80
e 57 59
e 57 60
e 57 72
e 57 75
e 57 76
e 57 80
e 58 65
e 58 68
e 58 69
e 58 71
e 58 75
e 59 67
e 60 61
e 60 62
e 60 79
e 61 69
e 61 71
e 61 76
e 61 79
e 63 70
e 63 75
e 63 78
e 64 66
e 64 77
e 65 72
e 67 72
e 69 80
e 70 74
e 71 73
e 75 76
